cvc5/29866.corecstrs.readable_hard.txt
(define-fun T_1 () Int 2)
(define-fun T_2 () Bool false)
(define-fun T_3 () Bool true)
(define-fun var_0xINPUT_355061 () String "..")
(define-fun part_0_7827 () String "AAAA")
(define-fun part_1_2629 () String "A")
(define-fun num_0_1958 () Int 6)